files/upTests/___types/emptyRelation/0001.eprime
language ESSENCE' 1.0

find x_RelationIntMatrix2: matrix indexed by [int(1..9), int(3..7)] of bool
such that
    forAll v__0 : int(1..9)
        . (forAll v__1 : int(3..7) . x_RelationIntMatrix2[v__0, v__1] -> v__0 = v__1)
