files/upTests/___types/emptyRelation/0001.eprime.solution
language ESSENCE' 1.0
$ minion Nodes: 43
$ minion TotalTime: 0.010075
$ Savile Row TotalTime: 0.502
letting x_RelationAsSet_ExplicitVarSize_tuple2_tuple2 be [3, 3, 3, 3, 3, 3, 3, 3, 3, 3, 3, 3, 3, 3]
letting x_RelationAsSet_ExplicitVarSize_tuple2_tuple1 be [1, 1, 1, 1, 1, 1, 1, 1, 1, 1, 1, 1, 1, 1]
letting x_RelationAsSet_ExplicitVarSize_tuple1 be [0, 0, 0, 0, 0, 0, 0, 0, 0, 0, 0, 0, 0, 0]
